49
120
84	1
82	1
81	2
80	2
79	1
78	1
77	1
76	3
73	2
71	1
68	3
67	1
66	1
64	3
63	1
62	2
61	1
60	3
59	2
58	2
57	4
56	3
55	2
54	2
52	1
50	2
49	5
48	1
47	3
46	2
45	2
41	3
39	1
38	3
36	3
33	1
32	2
31	1
28	1
26	6
25	2
23	1
22	1
21	2
20	2
19	4
16	3
15	1
12	2
